70
715
5
13
49
18
51
42
0 2
0 3
0 9
0 17
0 20
0 21
0 25
0 29
0 30
0 34
0 36
0 38
0 39
0 40
0 51
0 55
0 59
0 68
0 69
1 5
1 9
1 12
1 15
1 25
1 36
1 38
1 40
1 41
1 43
1 46
1 49
1 51
1 54
1 59
1 61
1 63
1 64
1 68
1 69
2 6
2 8
2 11
2 12
2 18
2 21
2 22
2 25
2 26
2 27
2 28
2 29
2 38
2 41
2 43
2 44
2 45
2 48
2 50
2 51
2 52
2 53
2 55
2 59
2 60
2 63
2 64
2 68
3 6
3 7
3 11
3 13
3 25
3 29
3 33
3 35
3 37
3 38
3 40
3 42
3 44
3 48
3 51
3 52
3 58
3 59
3 69
4 6
4 8
4 11
4 13
4 17
4 18
4 21
4 23
4 25
4 26
4 31
4 38
4 39
4 41
4 44
4 46
4 50
4 58
4 60
4 62
4 63
4 66
4 67
5 11
5 12
5 13
5 14
5 17
5 19
5 23
5 27
5 29
5 30
5 32
5 33
5 34
5 38
5 40
5 47
5 48
5 49
5 50
5 52
5 58
5 60
5 64
5 67
5 69
6 11
6 12
6 17
6 19
6 20
6 23
6 27
6 28
6 29
6 30
6 33
6 34
6 36
6 44
6 45
6 46
6 52
6 53
6 54
6 56
6 57
6 62
6 66
6 69
7 9
7 13
7 17
7 18
7 20
7 23
7 28
7 29
7 33
7 38
7 47
7 52
7 54
7 56
7 57
7 59
7 67
7 68
8 9
8 13
8 15
8 17
8 19
8 21
8 27
8 28
8 29
8 32
8 38
8 40
8 46
8 55
8 59
8 61
8 62
8 65
9 19
9 20
9 21
9 32
9 33
9 36
9 40
9 41
9 43
9 52
9 53
9 58
9 60
9 63
9 64
9 66
10 11
10 14
10 22
10 25
10 28
10 32
10 34
10 43
10 48
10 50
10 59
10 60
10 61
10 63
10 68
11 22
11 25
11 30
11 33
11 35
11 37
11 41
11 45
11 49
11 50
11 54
11 55
11 59
11 63
11 64
11 65
11 66
12 14
12 16
12 19
12 22
12 27
12 32
12 33
12 34
12 37
12 40
12 41
12 42
12 43
12 48
12 50
12 53
12 54
12 55
12 61
12 63
13 14
13 16
13 20
13 24
13 27
13 31
13 33
13 42
13 48
13 52
13 53
13 59
13 62
13 66
14 17
14 23
14 25
14 26
14 27
14 30
14 32
14 35
14 36
14 38
14 41
14 42
14 45
14 50
14 54
14 57
14 59
14 61
14 64
14 66
15 16
15 20
15 21
15 22
15 23
15 26
15 29
15 31
15 32
15 34
15 37
15 40
15 42
15 45
15 57
15 58
15 59
15 64
15 66
16 21
16 22
16 26
16 33
16 38
16 41
16 43
16 48
16 51
16 53
16 56
16 57
16 60
16 61
16 63
16 64
16 65
17 18
17 23
17 27
17 28
17 29
17 31
17 32
17 34
17 38
17 40
17 41
17 43
17 44
17 55
17 61
18 19
18 20
18 22
18 24
18 28
18 31
18 34
18 41
18 46
18 51
18 57
18 61
18 65
19 21
19 23
19 24
19 31
19 35
19 39
19 40
19 43
19 44
19 47
19 54
19 56
19 61
19 62
19 63
19 65
19 68
20 34
20 35
20 36
20 37
20 38
20 40
20 50
20 53
20 54
20 55
20 59
20 61
20 63
20 65
20 68
21 29
21 30
21 36
21 45
21 46
21 49
21 50
21 54
21 62
21 63
21 69
22 26
22 28
22 29
22 30
22 31
22 37
22 40
22 42
22 46
22 55
22 56
22 60
22 63
22 65
22 67
23 30
23 33
23 38
23 40
23 42
23 43
23 51
23 52
23 54
23 55
23 57
23 60
23 63
24 25
24 31
24 36
24 39
24 42
24 52
24 55
24 58
24 59
24 65
24 66
25 27
25 34
25 35
25 42
25 44
25 59
25 61
25 63
26 30
26 35
26 37
26 40
26 45
26 54
26 59
26 62
26 63
26 67
27 29
27 32
27 33
27 34
27 36
27 37
27 38
27 39
27 40
27 45
27 46
27 54
27 56
27 59
27 67
28 29
28 30
28 33
28 34
28 37
28 41
28 42
28 43
28 46
28 47
28 48
28 53
28 55
28 59
28 65
29 30
29 36
29 38
29 43
29 48
29 50
29 60
29 61
29 64
29 65
29 66
30 33
30 34
30 35
30 36
30 44
30 49
30 50
30 52
30 56
30 57
30 58
30 59
30 65
30 67
31 41
31 44
31 46
31 50
31 51
31 55
31 59
31 60
31 62
31 63
31 66
32 33
32 43
32 44
32 48
32 58
32 61
32 65
32 67
33 36
33 39
33 41
33 43
33 46
33 51
33 54
33 66
34 42
34 46
34 49
34 53
34 61
34 64
34 68
35 41
35 42
35 52
35 60
35 63
35 66
36 39
36 44
36 46
36 48
36 52
36 55
36 57
36 59
36 60
36 62
36 63
36 64
36 67
36 69
37 38
37 39
37 40
37 41
37 46
37 54
37 56
37 59
37 62
37 65
38 40
38 46
38 57
38 59
38 60
38 67
39 41
39 42
39 49
39 52
39 57
39 59
39 61
39 63
39 64
39 65
39 66
39 69
40 41
40 43
40 47
40 48
40 49
40 50
40 54
40 55
40 66
40 67
41 51
41 52
41 61
42 47
42 48
42 52
42 54
42 56
42 57
42 58
42 65
42 66
42 67
43 45
43 46
43 53
43 59
43 62
43 64
43 67
44 45
44 50
44 57
44 58
44 61
44 65
44 66
44 67
44 69
45 47
45 49
45 50
45 52
45 59
45 61
45 62
45 63
45 66
46 48
46 51
46 52
46 56
46 57
46 58
46 65
47 56
47 57
47 66
47 67
48 54
48 56
48 63
48 65
48 69
49 55
49 58
49 60
49 62
49 64
49 67
50 51
50 54
50 56
50 57
50 62
50 63
50 66
51 53
51 55
51 61
51 65
51 69
52 58
52 65
52 67
53 55
53 60
53 64
53 67
54 59
54 60
54 66
55 61
55 67
55 69
56 60
56 61
56 62
56 68
57 64
57 66
57 67
58 59
58 60
58 61
58 66
59 60
59 63
59 68
60 62
60 63
61 62
61 64
61 65
64 66
64 69
65 69
68 69
55 58 15 66 65 59 33 43 32 6 67 69 56 17 52 23 39
22 27 13 12 20 7 30 51 4 11 54 0 38 3 29 49 24
45 1 47 10 68 25 37 42 62 46 34 50 18 28 48 2 8
63 21 31 35 44 60 26 19 40 5 64 16 61 14 41 36 9
53 57
